c File: instances/28_0.10_1.col
c
c Description: Random graph of size 28 vertices and P(0.1) of edges between any two vertices.
p col 28 378
e 1 2
e 1 17
e 1 19
e 1 26
e 2 18
e 2 20
e 2 27
e 3 16
e 4 7
e 4 10
e 4 20
e 4 24
e 6 13
e 6 16
e 7 16
e 7 18
e 7 23
e 7 26
e 7 27
e 8 14
e 8 19
e 8 26
e 10 20
e 10 21
e 10 25
e 11 24
e 12 22
e 13 21
e 14 20
e 15 24
e 15 25
e 16 24
e 16 26
e 18 20
e 18 27
e 19 26
e 23 25
e 23 26
e 23 27
e 25 28
e 26 28
e 27 28